Minimize
  - 26 y_0 - 68 y_1 - 61 y_2 - 24 y_3 - 40 y_4 - 86 y_5 - 85 y_6 - 46 y_7
   - 116 y_8 - 44 y_9 - 125 y_10 - 56 y_11 - 86 y_12 - 93 y_13 - 41 y_14
   - 83 y_15 - 123 y_16 - 83 y_17 - 42 y_18 - 118 y_19 - 106 y_20 - 67 y_21
   - 84 y_22 - 84 y_23 - 90 y_24 - 63 y_25 - 20 y_26 - 58 y_27 - 13 y_28
   - 65 y_29 - 126 y_30 - 64 y_31 - 81 y_32 - 91 y_33 - 29 y_34 - 77 y_35
   - 63 y_36 - 112 y_37 - 42 y_38 - 82 y_39 - 78 y_41 - 64 y_42 - 84 y_43
   - 93 y_44 - 81 y_45 - 90 y_46 - 72 y_47 - 99 y_48 - 38 y_49
   + 3562 Constant
Subject To
 c_0: y_43 = 1
 c_1_0: y_0 + y_3 + y_4 + y_28 + y_34 >= 1
 c_1_1: y_1 + y_2 + y_21 + y_27 + y_32 + y_42 >= 1
 c_1_2: y_1 + y_2 >= 1
 c_1_3: y_0 + y_3 + y_26 + y_28 + y_34 >= 1
 c_1_4: y_0 + y_4 + y_7 + y_34 >= 1
 c_1_5: y_5 + y_6 + y_12 + y_15 + y_39 + y_46 >= 1
 c_1_6: y_5 + y_6 + y_12 + y_15 + y_39 + y_43 + y_46 >= 1
 c_1_7: y_4 + y_7 + y_29 + y_31 + y_34 + y_36 >= 1
 c_1_8: y_8 + y_10 + y_16 + y_19 + y_30 >= 1
 c_1_9: y_9 + y_11 + y_14 + y_18 + y_38 + y_49 >= 1
 c_1_10: y_8 + y_10 + y_16 + y_19 + y_30 >= 1
 c_1_11: y_9 + y_11 + y_14 + y_18 + y_25 + y_38 + y_47 + y_49 >= 1
 c_1_12: y_5 + y_6 + y_12 + y_15 + y_39 + y_43 + y_46 >= 1
 c_1_13: y_13 + y_17 + y_22 + y_23 + y_24 >= 1
 c_1_14: y_9 + y_11 + y_14 + y_18 + y_38 + y_49 >= 1
 c_1_15: y_5 + y_6 + y_12 + y_15 + y_39 + y_43 + y_46 >= 1
 c_1_16: y_8 + y_10 + y_16 + y_19 + y_30 >= 1
 c_1_17: y_13 + y_17 + y_21 + y_22 + y_23 + y_24 + y_42 >= 1
 c_1_18: y_9 + y_11 + y_14 + y_18 + y_38 + y_49 >= 1
 c_1_19: y_8 + y_10 + y_16 + y_19 + y_30 + y_37 >= 1
 c_1_20: y_20 >= 1
 c_1_21: y_1 + y_17 + y_21 + y_22 + y_23 + y_27 + y_42 >= 1
 c_1_22: y_13 + y_17 + y_21 + y_22 + y_23 + y_24 + y_33 + y_45 + y_48 >= 1
 c_1_23: y_13 + y_17 + y_21 + y_22 + y_23 + y_24 + y_33 + y_42 + y_48 >= 1
 c_1_24: y_13 + y_17 + y_22 + y_23 + y_24 + y_33 + y_45 + y_48 >= 1
 c_1_25: y_11 + y_25 + y_35 + y_41 + y_45 + y_47 >= 1
 c_1_26: y_3 + y_26 + y_28 + y_40 + y_49 >= 1
 c_1_27: y_1 + y_21 + y_27 + y_42 >= 1
 c_1_28: y_0 + y_3 + y_26 + y_28 + y_34 + y_40 >= 1
 c_1_29: y_7 + y_29 + y_31 + y_36 + y_39 >= 1
 c_1_30: y_8 + y_10 + y_16 + y_19 + y_30 >= 1
 c_1_31: y_7 + y_29 + y_31 + y_36 >= 1
 c_1_32: y_1 + y_32 >= 1
 c_1_33: y_22 + y_23 + y_24 + y_33 + y_44 + y_45 + y_48 >= 1
 c_1_34: y_0 + y_3 + y_4 + y_7 + y_28 + y_34 >= 1
 c_1_35: y_25 + y_35 + y_41 + y_44 + y_45 + y_47 >= 1
 c_1_36: y_7 + y_29 + y_31 + y_36 >= 1
 c_1_37: y_19 + y_37 >= 1
 c_1_38: y_9 + y_11 + y_14 + y_18 + y_38 + y_49 >= 1
 c_1_39: y_5 + y_6 + y_12 + y_15 + y_29 + y_39 + y_46 >= 1
 c_1_40: y_26 + y_28 + y_40 >= 1
 c_1_41: y_25 + y_35 + y_41 + y_44 + y_45 + y_47 >= 1
 c_1_42: y_1 + y_17 + y_21 + y_23 + y_27 + y_42 >= 1
 c_1_43: y_6 + y_12 + y_15 + y_43 + y_46 >= 1
 c_1_44: y_33 + y_35 + y_41 + y_44 + y_45 >= 1
 c_1_45: y_22 + y_24 + y_25 + y_33 + y_35 + y_41 + y_44 + y_45 + y_47 >= 1
 c_1_46: y_5 + y_6 + y_12 + y_15 + y_39 + y_43 + y_46 >= 1
 c_1_47: y_11 + y_25 + y_35 + y_41 + y_45 + y_47 >= 1
 c_1_48: y_22 + y_23 + y_24 + y_33 + y_48 >= 1
 c_1_49: y_9 + y_11 + y_14 + y_18 + y_26 + y_38 + y_49 >= 1
Bounds
 Constant = 1
Binaries
 y_0 y_1 y_2 y_3 y_4 y_5 y_6 y_7 y_8 y_9 y_10 y_11 y_12 y_13 y_14 y_15 y_16
 y_17 y_18 y_19 y_20 y_21 y_22 y_23 y_24 y_25 y_26 y_27 y_28 y_29 y_30 y_31
 y_32 y_33 y_34 y_35 y_36 y_37 y_38 y_39 y_40 y_41 y_42 y_43 y_44 y_45 y_46
 y_47 y_48 y_49
End
